70
    1    53    59
    2    62    66
    3    69    68
    4    56    51
    5     8     8
    6    18    21
    7    55    59
    8    55    59
    9    59    65
   10    52    46
   11    22    25
   12    63    69
   13    51    58
   14    29    36
   15     7     2
   16    69    66
   17    13    13
   18     8    12
   19    34    39
   20    35    40
   21    39    45
   22    61    57
   23    59    66
   24    14    10
   25    69    68
   26    45    46
   27     5     6
   28    16     9
   29    69    67
   30     2     5
   31    37    33
   32    30    25
   33    73    69
   34     3     7
   35    34    38
   36    14    17
   37    48    54
   38     7    12
   39    64    58
   40    33    30
   41    49    47
   42    18    13
   43    58    64
   44    19    21
   45    48    45
   46    39    36
   47     1     5
   48    63    69
   49    40    37
   50    37    32
   51    24    20
   52    35    32
   53    25    23
   54    22    20
   55    34    40
   56    33    37
   57     9     5
   58    53    60
   59    17    16
   60    20    16
   61    14    14
   62    14    18
   63    40    43
   64    22    28
   65    66    67
   66     7    14
   67    17    10
   68    30    30
   69    34    38
   70    53    47
71
